[
2.463508844180
,
2.520
]
ID:x1
;
[
2.00
,
2.463508844180
]
ID:x2
;
[
2.00
,
2.463508844180
]
ID:x3
;
[
2.00
,
2.463508844180
]
ID:x4
;
[
2.00
,
2.463508844180
]
ID:x5
;
[
1.00
,
1.00
]
ID:x6
;
(
(
ID:not
(
(
<
(
+
(
*
1.00
(
*
2.00
(
*
3.14159265
0.0651030
)
)
)
(
+
(
*
ID:x1
(
-
0.0087320
)
)
(
+
(
*
ID:x1
0.0553560
)
(
+
(
*
ID:x1
0.0725910
)
(
+
(
*
ID:x1
0.0379470
)
(
+
(
*
ID:x2
(
*
2.00
0.0254580
)
)
(
+
(
*
ID:x2
(
*
2.00
(
-
0.0254580
)
)
)
(
+
(
*
ID:x3
(
*
2.00
(
-
0.0254580
)
)
)
(
+
(
*
ID:x3
(
*
2.00
0.0254580
)
)
(
+
(
*
ID:x4
(
*
2.00
0.0254580
)
)
(
+
(
*
ID:x4
(
*
2.00
(
-
0.0254580
)
)
)
(
+
(
*
ID:x5
(
*
2.00
(
-
0.0254580
)
)
)
(
+
(
*
ID:x5
(
*
2.00
0.0254580
)
)
(
+
(
*
1.00
(
-
0.305580
)
)
(
+
(
*
1.00
(
-
0.0553710
)
)
(
+
(
*
1.00
(
-
0.4693890
)
)
(
*
1.00
0.0252360
)
)
)
)
)
)
)
)
)
)
)
)
)
)
)
)
)
0.00
)
)
)
)
(set-logic QF_NRA)
(declare-fun x1 () Real)
(declare-fun x2 () Real)
(declare-fun x3 () Real)
(declare-fun x4 () Real)
(declare-fun x5 () Real)
(declare-fun x6 () Real)
(assert (<= 2.46350884418 x1))
(assert (<= x1 2.52))
(assert (<= 2.0 x2))
(assert (<= x2 2.46350884418))
(assert (<= 2.0 x3))
(assert (<= x3 2.46350884418))
(assert (<= 2.0 x4))
(assert (<= x4 2.46350884418))
(assert (<= 2.0 x5))
(assert (<= x5 2.46350884418))
(assert (<= 1.0 x6))
(assert (<= x6 1.0))
(assert (not (< (+ (* 1.0 (* 2.0 (* 3.14159265 0.065103))) (+ (* x1 (- 0.008732)) (+ (* x1 0.055356) (+ (* x1 0.072591) (+ (* x1 0.037947) (+ (* x2 (* 2.0 0.025458)) (+ (* x2 (* 2.0 (- 0.025458))) (+ (* x3 (* 2.0 (- 0.025458))) (+ (* x3 (* 2.0 0.025458)) (+ (* x4 (* 2.0 0.025458)) (+ (* x4 (* 2.0 (- 0.025458))) (+ (* x5 (* 2.0 (- 0.025458))) (+ (* x5 (* 2.0 0.025458)) (+ (* 1.0 (- 0.30558)) (+ (* 1.0 (- 0.055371)) (+ (* 1.0 (- 0.469389)) (* 1.0 0.025236))))))))))))))))) 0.0)))
(check-sat)
(exit)
